
  ### LAMMPS commands for initialization
  ### (These can be overridden later.)


write_once("In Init") {
  atom_style full
}

write_once("In Settings") {
  pair_coeff @atom:type1 @atom:type1 0.170 3.2500000
  pair_coeff @atom:type2 @atom:type2 0.066 3.5000000
  pair_coeff @atom:type3 @atom:type3 0.066 3.5000000
  pair_coeff @atom:type4 @atom:type4 0.066 3.5000000
  pair_coeff @atom:type5 @atom:type5 0.066 3.5000000
  pair_coeff @atom:type6 @atom:type6 0.066 3.5000000
  pair_coeff @atom:type7 @atom:type7 0.066 3.5000000
  pair_coeff @atom:type8 @atom:type8 0.066 3.5000000
  pair_coeff @atom:type9 @atom:type9 0.066 3.5000000
  pair_coeff @atom:type10 @atom:type10 0.066 3.5000000
  pair_coeff @atom:type11 @atom:type11 0.030 2.5000000
  pair_coeff @atom:type12 @atom:type12 0.030 2.5000000
  pair_coeff @atom:type13 @atom:type13 0.030 2.5000000
  pair_coeff @atom:type14 @atom:type14 0.030 2.5000000
  pair_coeff @atom:type15 @atom:type15 0.030 2.5000000
  pair_coeff @atom:type16 @atom:type16 0.030 2.5000000
  pair_coeff @atom:type17 @atom:type17 0.030 2.5000000
  pair_coeff @atom:type18 @atom:type18 0.030 2.5000000
  pair_coeff @atom:type19 @atom:type19 0.030 2.5000000
  pair_coeff @atom:type20 @atom:type20 0.030 2.5000000
  pair_coeff @atom:type21 @atom:type21 0.030 2.5000000
  pair_coeff @atom:type22 @atom:type22 0.030 2.5000000
  pair_coeff @atom:type23 @atom:type23 0.030 2.5000000
  pair_coeff @atom:type24 @atom:type24 0.030 2.5000000
  pair_coeff @atom:type25 @atom:type25 0.030 2.5000000
  pair_coeff @atom:type26 @atom:type26 0.030 2.5000000
  pair_coeff @atom:type27 @atom:type27 0.030 2.5000000
  pair_coeff @atom:type28 @atom:type28 0.030 2.5000000
  pair_coeff @atom:type29 @atom:type29 0.030 2.5000000
  pair_coeff @atom:type30 @atom:type30 0.030 2.5000000
}

write_once("In Settings") {
  bond_coeff @bond:type1 367.0000 1.4710
  bond_coeff @bond:type2 367.0000 1.4710
  bond_coeff @bond:type3 268.0000 1.5290
  bond_coeff @bond:type4 268.0000 1.5290
  bond_coeff @bond:type5 268.0000 1.5290
  bond_coeff @bond:type6 367.0000 1.4710
  bond_coeff @bond:type7 268.0000 1.5290
  bond_coeff @bond:type8 268.0000 1.5290
  bond_coeff @bond:type9 268.0000 1.5290
  bond_coeff @bond:type10 340.0000 1.0900
  bond_coeff @bond:type11 340.0000 1.0900
  bond_coeff @bond:type12 340.0000 1.0900
  bond_coeff @bond:type13 340.0000 1.0900
  bond_coeff @bond:type14 340.0000 1.0900
  bond_coeff @bond:type15 340.0000 1.0900
  bond_coeff @bond:type16 340.0000 1.0900
  bond_coeff @bond:type17 340.0000 1.0900
  bond_coeff @bond:type18 340.0000 1.0900
  bond_coeff @bond:type19 340.0000 1.0900
  bond_coeff @bond:type20 340.0000 1.0900
  bond_coeff @bond:type21 340.0000 1.0900
  bond_coeff @bond:type22 340.0000 1.0900
  bond_coeff @bond:type23 340.0000 1.0900
  bond_coeff @bond:type24 340.0000 1.0900
  bond_coeff @bond:type25 340.0000 1.0900
  bond_coeff @bond:type26 340.0000 1.0900
  bond_coeff @bond:type27 340.0000 1.0900
  bond_coeff @bond:type28 340.0000 1.0900
  bond_coeff @bond:type29 340.0000 1.0900
  bond_coeff @bond:type30 367.0000 1.4710
}

write_once("In Settings") {
  angle_coeff @angle:type1 50.000 113.000
  angle_coeff @angle:type2 80.000 111.200
  angle_coeff @angle:type3 58.350 112.700
  angle_coeff @angle:type4 58.350 112.700
  angle_coeff @angle:type5 50.000 113.000
  angle_coeff @angle:type6 80.000 111.200
  angle_coeff @angle:type7 58.350 112.700
  angle_coeff @angle:type8 58.350 112.700
  angle_coeff @angle:type9 37.500 110.700
  angle_coeff @angle:type10 37.500 110.700
  angle_coeff @angle:type11 37.500 110.700
  angle_coeff @angle:type12 37.500 110.700
  angle_coeff @angle:type13 37.500 110.700
  angle_coeff @angle:type14 37.500 110.700
  angle_coeff @angle:type15 37.500 110.700
  angle_coeff @angle:type16 35.000 109.500
  angle_coeff @angle:type17 35.000 109.500
  angle_coeff @angle:type18 35.000 109.500
  angle_coeff @angle:type19 35.000 109.500
  angle_coeff @angle:type20 37.500 110.700
  angle_coeff @angle:type21 37.500 110.700
  angle_coeff @angle:type22 37.500 110.700
  angle_coeff @angle:type23 37.500 110.700
  angle_coeff @angle:type24 37.500 110.700
  angle_coeff @angle:type25 37.500 110.700
  angle_coeff @angle:type26 35.000 109.500
  angle_coeff @angle:type27 35.000 109.500
  angle_coeff @angle:type28 35.000 109.500
  angle_coeff @angle:type29 50.000 113.000
  angle_coeff @angle:type30 50.000 113.000
  angle_coeff @angle:type31 50.000 113.000
  angle_coeff @angle:type32 37.500 110.700
  angle_coeff @angle:type33 37.500 110.700
  angle_coeff @angle:type34 37.500 110.700
  angle_coeff @angle:type35 37.500 110.700
  angle_coeff @angle:type36 37.500 110.700
  angle_coeff @angle:type37 37.500 110.700
  angle_coeff @angle:type38 50.000 113.000
  angle_coeff @angle:type39 37.500 110.700
  angle_coeff @angle:type40 37.500 110.700
  angle_coeff @angle:type41 37.500 110.700
  angle_coeff @angle:type42 37.500 110.700
  angle_coeff @angle:type43 37.500 110.700
  angle_coeff @angle:type44 37.500 110.700
  angle_coeff @angle:type45 33.000 107.800
  angle_coeff @angle:type46 33.000 107.800
  angle_coeff @angle:type47 33.000 107.800
  angle_coeff @angle:type48 33.000 107.800
  angle_coeff @angle:type49 33.000 107.800
  angle_coeff @angle:type50 33.000 107.800
  angle_coeff @angle:type51 33.000 107.800
  angle_coeff @angle:type52 33.000 107.800
  angle_coeff @angle:type53 33.000 107.800
  angle_coeff @angle:type54 35.000 109.500
  angle_coeff @angle:type55 33.000 107.800
  angle_coeff @angle:type56 35.000 109.500
  angle_coeff @angle:type57 33.000 107.800
  angle_coeff @angle:type58 33.000 107.800
  angle_coeff @angle:type59 33.000 107.800
  angle_coeff @angle:type60 80.000 111.200
}

write_once("In Settings") {
  dihedral_coeff @dihedral:type1 1.438 -0.124 0.264 0.000
  dihedral_coeff @dihedral:type2 2.732 -0.229 0.485 0.000
  dihedral_coeff @dihedral:type3 0.850 -0.200 0.200 0.000
  dihedral_coeff @dihedral:type4 1.438 -0.124 0.264 0.000
  dihedral_coeff @dihedral:type5 1.438 -0.124 0.264 0.000
  dihedral_coeff @dihedral:type6 2.732 -0.229 0.485 0.000
  dihedral_coeff @dihedral:type7 0.850 -0.200 0.200 0.000
  dihedral_coeff @dihedral:type8 0.000 0.000 0.300 0.000
  dihedral_coeff @dihedral:type9 0.000 0.000 0.300 0.000
  dihedral_coeff @dihedral:type10 0.000 0.000 0.300 0.000
  dihedral_coeff @dihedral:type11 0.000 0.000 0.300 0.000
  dihedral_coeff @dihedral:type12 0.000 0.000 0.300 0.000
  dihedral_coeff @dihedral:type13 0.000 0.000 0.384 0.000
  dihedral_coeff @dihedral:type14 0.000 0.000 0.384 0.000
  dihedral_coeff @dihedral:type15 0.000 0.000 0.302 0.000
  dihedral_coeff @dihedral:type16 0.000 0.000 0.302 0.000
  dihedral_coeff @dihedral:type17 0.000 0.000 0.302 0.000
  dihedral_coeff @dihedral:type18 0.000 0.000 0.302 0.000
  dihedral_coeff @dihedral:type19 0.000 0.000 0.384 0.000
  dihedral_coeff @dihedral:type20 0.000 0.000 0.384 0.000
  dihedral_coeff @dihedral:type21 0.000 0.000 0.300 0.000
  dihedral_coeff @dihedral:type22 0.000 0.000 0.300 0.000
  dihedral_coeff @dihedral:type23 0.000 0.000 0.300 0.000
  dihedral_coeff @dihedral:type24 0.000 0.000 0.300 0.000
  dihedral_coeff @dihedral:type25 0.000 0.000 0.302 0.000
  dihedral_coeff @dihedral:type26 0.000 0.000 0.302 0.000
  dihedral_coeff @dihedral:type27 0.000 0.000 0.302 0.000
  dihedral_coeff @dihedral:type28 1.438 -0.124 0.264 0.000
  dihedral_coeff @dihedral:type29 0.000 0.000 0.302 0.000
  dihedral_coeff @dihedral:type30 0.000 0.000 0.302 0.000
  dihedral_coeff @dihedral:type31 1.438 -0.124 0.264 0.000
  dihedral_coeff @dihedral:type32 0.000 0.000 0.302 0.000
  dihedral_coeff @dihedral:type33 0.000 0.000 0.302 0.000
  dihedral_coeff @dihedral:type34 0.000 0.000 0.302 0.000
  dihedral_coeff @dihedral:type35 0.000 0.000 0.302 0.000
  dihedral_coeff @dihedral:type36 0.000 0.000 0.302 0.000
  dihedral_coeff @dihedral:type37 1.438 -0.124 0.264 0.000
  dihedral_coeff @dihedral:type38 0.000 0.000 0.300 0.000
  dihedral_coeff @dihedral:type39 0.000 0.000 0.300 0.000
  dihedral_coeff @dihedral:type40 0.000 0.000 0.300 0.000
  dihedral_coeff @dihedral:type41 0.000 0.000 0.300 0.000
  dihedral_coeff @dihedral:type42 1.438 -0.124 0.264 0.000
  dihedral_coeff @dihedral:type43 0.000 0.000 0.302 0.000
  dihedral_coeff @dihedral:type44 0.000 0.000 0.302 0.000
  dihedral_coeff @dihedral:type45 0.000 0.000 0.302 0.000
  dihedral_coeff @dihedral:type46 0.000 0.000 0.302 0.000
  dihedral_coeff @dihedral:type47 0.000 0.000 0.302 0.000
  dihedral_coeff @dihedral:type48 0.000 0.000 0.302 0.000
  dihedral_coeff @dihedral:type49 0.000 0.000 0.302 0.000
  dihedral_coeff @dihedral:type50 1.438 -0.124 0.264 0.000
  dihedral_coeff @dihedral:type51 0.000 0.000 0.302 0.000
  dihedral_coeff @dihedral:type52 0.000 0.000 0.302 0.000
  dihedral_coeff @dihedral:type53 0.000 0.000 0.302 0.000
  dihedral_coeff @dihedral:type54 0.000 0.000 0.302 0.000
  dihedral_coeff @dihedral:type55 1.438 -0.124 0.264 0.000
  dihedral_coeff @dihedral:type56 0.000 0.000 0.302 0.000
  dihedral_coeff @dihedral:type57 0.000 0.000 0.302 0.000
  dihedral_coeff @dihedral:type58 0.000 0.000 0.300 0.000
  dihedral_coeff @dihedral:type59 0.000 0.000 0.300 0.000
  dihedral_coeff @dihedral:type60 0.000 0.000 0.300 0.000
  dihedral_coeff @dihedral:type61 0.000 0.000 0.300 0.000
  dihedral_coeff @dihedral:type62 0.000 0.000 0.300 0.000
  dihedral_coeff @dihedral:type63 0.000 0.000 0.300 0.000
  dihedral_coeff @dihedral:type64 0.000 0.000 0.300 0.000
  dihedral_coeff @dihedral:type65 0.000 0.000 0.300 0.000
  dihedral_coeff @dihedral:type66 0.000 0.000 0.300 0.000
  dihedral_coeff @dihedral:type67 0.000 0.000 0.300 0.000
  dihedral_coeff @dihedral:type68 0.000 0.000 0.300 0.000
  dihedral_coeff @dihedral:type69 0.000 0.000 0.300 0.000
  dihedral_coeff @dihedral:type70 0.000 0.000 0.300 0.000
  dihedral_coeff @dihedral:type71 0.000 0.000 0.300 0.000
  dihedral_coeff @dihedral:type72 0.000 0.000 0.300 0.000
  dihedral_coeff @dihedral:type73 0.000 0.000 0.300 0.000
  dihedral_coeff @dihedral:type74 0.000 0.000 0.300 0.000
  dihedral_coeff @dihedral:type75 0.000 0.000 0.300 0.000
  dihedral_coeff @dihedral:type76 0.000 0.000 0.300 0.000
  dihedral_coeff @dihedral:type77 0.000 0.000 0.300 0.000
  dihedral_coeff @dihedral:type78 0.000 0.000 0.300 0.000
  dihedral_coeff @dihedral:type79 0.000 0.000 0.300 0.000
  dihedral_coeff @dihedral:type80 0.000 0.000 0.300 0.000
  dihedral_coeff @dihedral:type81 0.000 0.000 0.300 0.000
  dihedral_coeff @dihedral:type82 0.000 0.000 0.300 0.000
  dihedral_coeff @dihedral:type83 0.000 0.000 0.300 0.000
  dihedral_coeff @dihedral:type84 0.000 0.000 0.384 0.000
  dihedral_coeff @dihedral:type85 0.000 0.000 0.300 0.000
  dihedral_coeff @dihedral:type86 0.000 0.000 0.300 0.000
  dihedral_coeff @dihedral:type87 0.000 0.000 0.384 0.000
  dihedral_coeff @dihedral:type88 0.000 0.000 0.300 0.000
  dihedral_coeff @dihedral:type89 0.000 0.000 0.300 0.000
  dihedral_coeff @dihedral:type90 2.732 -0.229 0.485 0.000
}


  ### DATA sections


write_once("Data Masses") {
  @atom:type1 14.007
  @atom:type2 12.011
  @atom:type3 12.011
  @atom:type4 12.011
  @atom:type5 12.011
  @atom:type6 12.011
  @atom:type7 12.011
  @atom:type8 12.011
  @atom:type9 12.011
  @atom:type10 12.011
  @atom:type11 1.008
  @atom:type12 1.008
  @atom:type13 1.008
  @atom:type14 1.008
  @atom:type15 1.008
  @atom:type16 1.008
  @atom:type17 1.008
  @atom:type18 1.008
  @atom:type19 1.008
  @atom:type20 1.008
  @atom:type21 1.008
  @atom:type22 1.008
  @atom:type23 1.008
  @atom:type24 1.008
  @atom:type25 1.008
  @atom:type26 1.008
  @atom:type27 1.008
  @atom:type28 1.008
  @atom:type29 1.008
  @atom:type30 1.008
}

write("Data Atoms") {
  $atom:type1 $mol:m1 @atom:type1 0.256168 -0.70500 0.13200 -0.43100
  $atom:type2 $mol:m1 @atom:type2 -0.185924 0.46000 1.03600 -0.68500
  $atom:type3 $mol:m1 @atom:type3 -0.196401 -0.73300 -0.39600 0.96200
  $atom:type4 $mol:m1 @atom:type4 -0.191043 -2.19600 -0.71900 1.30400
  $atom:type5 $mol:m1 @atom:type5 -0.205949 -3.02100 0.13700 0.34100
  $atom:type6 $mol:m1 @atom:type6 -0.180022 -1.98100 0.90000 -0.49300
  $atom:type7 $mol:m1 @atom:type7 -0.228667 -0.74400 -0.98200 -1.41900
  $atom:type8 $mol:m1 @atom:type8 -0.196570 1.85400 0.36200 -0.61000
  $atom:type9 $mol:m1 @atom:type9 -0.184067 2.45900 0.01600 -1.98500
  $atom:type10 $mol:m1 @atom:type10 -0.218915 3.84800 -0.62300 -1.86700
  $atom:type11 $mol:m1 @atom:type11 0.089234 4.55600 0.04000 -1.36700
  $atom:type12 $mol:m1 @atom:type12 0.089234 3.81900 -1.56100 -1.30900
  $atom:type13 $mol:m1 @atom:type13 0.089234 4.26000 -0.84600 -2.85200
  $atom:type14 $mol:m1 @atom:type14 0.089094 2.54600 0.92100 -2.59100
  $atom:type15 $mol:m1 @atom:type15 0.089094 1.81400 -0.66000 -2.54600
  $atom:type16 $mol:m1 @atom:type16 0.124243 2.54100 1.06300 -0.12800
  $atom:type17 $mol:m1 @atom:type17 0.124243 1.85500 -0.51300 0.04000
  $atom:type18 $mol:m1 @atom:type18 0.140064 0.44600 1.84800 0.04800
  $atom:type19 $mol:m1 @atom:type19 0.140064 0.34500 1.54100 -1.64800
  $atom:type20 $mol:m1 @atom:type20 0.155895 -0.37600 0.36700 1.66000
  $atom:type21 $mol:m1 @atom:type21 0.155895 -0.08300 -1.26200 1.11100
  $atom:type22 $mol:m1 @atom:type22 0.130888 -2.42600 -0.50400 2.35100
  $atom:type23 $mol:m1 @atom:type23 0.130888 -2.41100 -1.77900 1.15100
  $atom:type24 $mol:m1 @atom:type24 0.132813 -3.69800 0.81500 0.86600
  $atom:type25 $mol:m1 @atom:type25 0.132813 -3.64800 -0.49700 -0.29200
  $atom:type26 $mol:m1 @atom:type26 0.149189 -1.85200 1.88900 -0.04400
  $atom:type27 $mol:m1 @atom:type27 0.149189 -2.32400 1.08200 -1.51500
  $atom:type28 $mol:m1 @atom:type28 0.139771 -1.64000 -1.59600 -1.31800
  $atom:type29 $mol:m1 @atom:type29 0.139771 -0.72800 -0.60800 -2.44500
  $atom:type30 $mol:m1 @atom:type30 0.139774 0.10500 -1.65600 -1.30600
}

write("Data Bonds") {
  $bond:id1 @bond:type1 $atom:type2 $atom:type1
  $bond:id2 @bond:type2 $atom:type3 $atom:type1
  $bond:id3 @bond:type3 $atom:type4 $atom:type3
  $bond:id4 @bond:type4 $atom:type5 $atom:type4
  $bond:id5 @bond:type5 $atom:type6 $atom:type5
  $bond:id6 @bond:type6 $atom:type7 $atom:type1
  $bond:id7 @bond:type7 $atom:type8 $atom:type2
  $bond:id8 @bond:type8 $atom:type9 $atom:type8
  $bond:id9 @bond:type9 $atom:type10 $atom:type9
  $bond:id10 @bond:type10 $atom:type11 $atom:type10
  $bond:id11 @bond:type11 $atom:type12 $atom:type10
  $bond:id12 @bond:type12 $atom:type13 $atom:type10
  $bond:id13 @bond:type13 $atom:type14 $atom:type9
  $bond:id14 @bond:type14 $atom:type15 $atom:type9
  $bond:id15 @bond:type15 $atom:type16 $atom:type8
  $bond:id16 @bond:type16 $atom:type17 $atom:type8
  $bond:id17 @bond:type17 $atom:type18 $atom:type2
  $bond:id18 @bond:type18 $atom:type19 $atom:type2
  $bond:id19 @bond:type19 $atom:type20 $atom:type3
  $bond:id20 @bond:type20 $atom:type21 $atom:type3
  $bond:id21 @bond:type21 $atom:type22 $atom:type4
  $bond:id22 @bond:type22 $atom:type23 $atom:type4
  $bond:id23 @bond:type23 $atom:type24 $atom:type5
  $bond:id24 @bond:type24 $atom:type25 $atom:type5
  $bond:id25 @bond:type25 $atom:type26 $atom:type6
  $bond:id26 @bond:type26 $atom:type27 $atom:type6
  $bond:id27 @bond:type27 $atom:type28 $atom:type7
  $bond:id28 @bond:type28 $atom:type29 $atom:type7
  $bond:id29 @bond:type29 $atom:type30 $atom:type7
  $bond:id30 @bond:type30 $atom:type6 $atom:type1
}

write("Data Angles") {
  $angle:id1 @angle:type1 $atom:type3 $atom:type1 $atom:type2
  $angle:id2 @angle:type2 $atom:type4 $atom:type3 $atom:type1
  $angle:id3 @angle:type3 $atom:type5 $atom:type4 $atom:type3
  $angle:id4 @angle:type4 $atom:type6 $atom:type5 $atom:type4
  $angle:id5 @angle:type5 $atom:type7 $atom:type1 $atom:type3
  $angle:id6 @angle:type6 $atom:type8 $atom:type2 $atom:type1
  $angle:id7 @angle:type7 $atom:type9 $atom:type8 $atom:type2
  $angle:id8 @angle:type8 $atom:type10 $atom:type9 $atom:type8
  $angle:id9 @angle:type9 $atom:type11 $atom:type10 $atom:type9
  $angle:id10 @angle:type10 $atom:type12 $atom:type10 $atom:type9
  $angle:id11 @angle:type11 $atom:type13 $atom:type10 $atom:type9
  $angle:id12 @angle:type12 $atom:type14 $atom:type9 $atom:type8
  $angle:id13 @angle:type13 $atom:type15 $atom:type9 $atom:type8
  $angle:id14 @angle:type14 $atom:type16 $atom:type8 $atom:type2
  $angle:id15 @angle:type15 $atom:type17 $atom:type8 $atom:type2
  $angle:id16 @angle:type16 $atom:type18 $atom:type2 $atom:type1
  $angle:id17 @angle:type17 $atom:type19 $atom:type2 $atom:type1
  $angle:id18 @angle:type18 $atom:type20 $atom:type3 $atom:type1
  $angle:id19 @angle:type19 $atom:type21 $atom:type3 $atom:type1
  $angle:id20 @angle:type20 $atom:type22 $atom:type4 $atom:type3
  $angle:id21 @angle:type21 $atom:type23 $atom:type4 $atom:type3
  $angle:id22 @angle:type22 $atom:type24 $atom:type5 $atom:type4
  $angle:id23 @angle:type23 $atom:type25 $atom:type5 $atom:type4
  $angle:id24 @angle:type24 $atom:type26 $atom:type6 $atom:type5
  $angle:id25 @angle:type25 $atom:type27 $atom:type6 $atom:type5
  $angle:id26 @angle:type26 $atom:type28 $atom:type7 $atom:type1
  $angle:id27 @angle:type27 $atom:type29 $atom:type7 $atom:type1
  $angle:id28 @angle:type28 $atom:type30 $atom:type7 $atom:type1
  $angle:id29 @angle:type29 $atom:type6 $atom:type1 $atom:type2
  $angle:id30 @angle:type30 $atom:type7 $atom:type1 $atom:type2
  $angle:id31 @angle:type31 $atom:type6 $atom:type1 $atom:type3
  $angle:id32 @angle:type32 $atom:type20 $atom:type3 $atom:type4
  $angle:id33 @angle:type33 $atom:type21 $atom:type3 $atom:type4
  $angle:id34 @angle:type34 $atom:type22 $atom:type4 $atom:type5
  $angle:id35 @angle:type35 $atom:type23 $atom:type4 $atom:type5
  $angle:id36 @angle:type36 $atom:type24 $atom:type5 $atom:type6
  $angle:id37 @angle:type37 $atom:type25 $atom:type5 $atom:type6
  $angle:id38 @angle:type38 $atom:type7 $atom:type1 $atom:type6
  $angle:id39 @angle:type39 $atom:type18 $atom:type2 $atom:type8
  $angle:id40 @angle:type40 $atom:type19 $atom:type2 $atom:type8
  $angle:id41 @angle:type41 $atom:type16 $atom:type8 $atom:type9
  $angle:id42 @angle:type42 $atom:type17 $atom:type8 $atom:type9
  $angle:id43 @angle:type43 $atom:type14 $atom:type9 $atom:type10
  $angle:id44 @angle:type44 $atom:type15 $atom:type9 $atom:type10
  $angle:id45 @angle:type45 $atom:type12 $atom:type10 $atom:type11
  $angle:id46 @angle:type46 $atom:type13 $atom:type10 $atom:type11
  $angle:id47 @angle:type47 $atom:type13 $atom:type10 $atom:type12
  $angle:id48 @angle:type48 $atom:type15 $atom:type9 $atom:type14
  $angle:id49 @angle:type49 $atom:type17 $atom:type8 $atom:type16
  $angle:id50 @angle:type50 $atom:type19 $atom:type2 $atom:type18
  $angle:id51 @angle:type51 $atom:type21 $atom:type3 $atom:type20
  $angle:id52 @angle:type52 $atom:type23 $atom:type4 $atom:type22
  $angle:id53 @angle:type53 $atom:type25 $atom:type5 $atom:type24
  $angle:id54 @angle:type54 $atom:type1 $atom:type6 $atom:type26
  $angle:id55 @angle:type55 $atom:type27 $atom:type6 $atom:type26
  $angle:id56 @angle:type56 $atom:type1 $atom:type6 $atom:type27
  $angle:id57 @angle:type57 $atom:type29 $atom:type7 $atom:type28
  $angle:id58 @angle:type58 $atom:type30 $atom:type7 $atom:type28
  $angle:id59 @angle:type59 $atom:type30 $atom:type7 $atom:type29
  $angle:id60 @angle:type60 $atom:type5 $atom:type6 $atom:type1
}

write("Data Dihedrals") {
  $dihedral:id1 @dihedral:type1 $atom:type4 $atom:type3 $atom:type1 $atom:type2
  $dihedral:id2 @dihedral:type2 $atom:type5 $atom:type4 $atom:type3 $atom:type1
  $dihedral:id3 @dihedral:type3 $atom:type6 $atom:type5 $atom:type4 $atom:type3
  $dihedral:id4 @dihedral:type4 $atom:type7 $atom:type1 $atom:type3 $atom:type4
  $dihedral:id5 @dihedral:type5 $atom:type8 $atom:type2 $atom:type1 $atom:type3
  $dihedral:id6 @dihedral:type6 $atom:type9 $atom:type8 $atom:type2 $atom:type1
  $dihedral:id7 @dihedral:type7 $atom:type10 $atom:type9 $atom:type8 $atom:type2
  $dihedral:id8 @dihedral:type8 $atom:type11 $atom:type10 $atom:type9 $atom:type8
  $dihedral:id9 @dihedral:type9 $atom:type12 $atom:type10 $atom:type9 $atom:type8
  $dihedral:id10 @dihedral:type10 $atom:type13 $atom:type10 $atom:type9 $atom:type8
  $dihedral:id11 @dihedral:type11 $atom:type14 $atom:type9 $atom:type8 $atom:type2
  $dihedral:id12 @dihedral:type12 $atom:type15 $atom:type9 $atom:type8 $atom:type2
  $dihedral:id13 @dihedral:type13 $atom:type16 $atom:type8 $atom:type2 $atom:type1
  $dihedral:id14 @dihedral:type14 $atom:type17 $atom:type8 $atom:type2 $atom:type1
  $dihedral:id15 @dihedral:type15 $atom:type18 $atom:type2 $atom:type1 $atom:type3
  $dihedral:id16 @dihedral:type16 $atom:type19 $atom:type2 $atom:type1 $atom:type3
  $dihedral:id17 @dihedral:type17 $atom:type20 $atom:type3 $atom:type1 $atom:type2
  $dihedral:id18 @dihedral:type18 $atom:type21 $atom:type3 $atom:type1 $atom:type2
  $dihedral:id19 @dihedral:type19 $atom:type22 $atom:type4 $atom:type3 $atom:type1
  $dihedral:id20 @dihedral:type20 $atom:type23 $atom:type4 $atom:type3 $atom:type1
  $dihedral:id21 @dihedral:type21 $atom:type24 $atom:type5 $atom:type4 $atom:type3
  $dihedral:id22 @dihedral:type22 $atom:type25 $atom:type5 $atom:type4 $atom:type3
  $dihedral:id23 @dihedral:type23 $atom:type26 $atom:type6 $atom:type5 $atom:type4
  $dihedral:id24 @dihedral:type24 $atom:type27 $atom:type6 $atom:type5 $atom:type4
  $dihedral:id25 @dihedral:type25 $atom:type28 $atom:type7 $atom:type1 $atom:type2
  $dihedral:id26 @dihedral:type26 $atom:type29 $atom:type7 $atom:type1 $atom:type2
  $dihedral:id27 @dihedral:type27 $atom:type30 $atom:type7 $atom:type1 $atom:type2
  $dihedral:id28 @dihedral:type28 $atom:type5 $atom:type6 $atom:type1 $atom:type2
  $dihedral:id29 @dihedral:type29 $atom:type26 $atom:type6 $atom:type1 $atom:type2
  $dihedral:id30 @dihedral:type30 $atom:type27 $atom:type6 $atom:type1 $atom:type2
  $dihedral:id31 @dihedral:type31 $atom:type5 $atom:type6 $atom:type1 $atom:type3
  $dihedral:id32 @dihedral:type32 $atom:type26 $atom:type6 $atom:type1 $atom:type3
  $dihedral:id33 @dihedral:type33 $atom:type27 $atom:type6 $atom:type1 $atom:type3
  $dihedral:id34 @dihedral:type34 $atom:type28 $atom:type7 $atom:type1 $atom:type3
  $dihedral:id35 @dihedral:type35 $atom:type29 $atom:type7 $atom:type1 $atom:type3
  $dihedral:id36 @dihedral:type36 $atom:type30 $atom:type7 $atom:type1 $atom:type3
  $dihedral:id37 @dihedral:type37 $atom:type6 $atom:type1 $atom:type3 $atom:type4
  $dihedral:id38 @dihedral:type38 $atom:type20 $atom:type3 $atom:type4 $atom:type5
  $dihedral:id39 @dihedral:type39 $atom:type21 $atom:type3 $atom:type4 $atom:type5
  $dihedral:id40 @dihedral:type40 $atom:type22 $atom:type4 $atom:type5 $atom:type6
  $dihedral:id41 @dihedral:type41 $atom:type23 $atom:type4 $atom:type5 $atom:type6
  $dihedral:id42 @dihedral:type42 $atom:type8 $atom:type2 $atom:type1 $atom:type6
  $dihedral:id43 @dihedral:type43 $atom:type18 $atom:type2 $atom:type1 $atom:type6
  $dihedral:id44 @dihedral:type44 $atom:type19 $atom:type2 $atom:type1 $atom:type6
  $dihedral:id45 @dihedral:type45 $atom:type20 $atom:type3 $atom:type1 $atom:type6
  $dihedral:id46 @dihedral:type46 $atom:type21 $atom:type3 $atom:type1 $atom:type6
  $dihedral:id47 @dihedral:type47 $atom:type28 $atom:type7 $atom:type1 $atom:type6
  $dihedral:id48 @dihedral:type48 $atom:type29 $atom:type7 $atom:type1 $atom:type6
  $dihedral:id49 @dihedral:type49 $atom:type30 $atom:type7 $atom:type1 $atom:type6
  $dihedral:id50 @dihedral:type50 $atom:type8 $atom:type2 $atom:type1 $atom:type7
  $dihedral:id51 @dihedral:type51 $atom:type18 $atom:type2 $atom:type1 $atom:type7
  $dihedral:id52 @dihedral:type52 $atom:type19 $atom:type2 $atom:type1 $atom:type7
  $dihedral:id53 @dihedral:type53 $atom:type20 $atom:type3 $atom:type1 $atom:type7
  $dihedral:id54 @dihedral:type54 $atom:type21 $atom:type3 $atom:type1 $atom:type7
  $dihedral:id55 @dihedral:type55 $atom:type5 $atom:type6 $atom:type1 $atom:type7
  $dihedral:id56 @dihedral:type56 $atom:type26 $atom:type6 $atom:type1 $atom:type7
  $dihedral:id57 @dihedral:type57 $atom:type27 $atom:type6 $atom:type1 $atom:type7
  $dihedral:id58 @dihedral:type58 $atom:type18 $atom:type2 $atom:type8 $atom:type9
  $dihedral:id59 @dihedral:type59 $atom:type19 $atom:type2 $atom:type8 $atom:type9
  $dihedral:id60 @dihedral:type60 $atom:type16 $atom:type8 $atom:type9 $atom:type10
  $dihedral:id61 @dihedral:type61 $atom:type17 $atom:type8 $atom:type9 $atom:type10
  $dihedral:id62 @dihedral:type62 $atom:type14 $atom:type9 $atom:type10 $atom:type11
  $dihedral:id63 @dihedral:type63 $atom:type15 $atom:type9 $atom:type10 $atom:type11
  $dihedral:id64 @dihedral:type64 $atom:type14 $atom:type9 $atom:type10 $atom:type12
  $dihedral:id65 @dihedral:type65 $atom:type15 $atom:type9 $atom:type10 $atom:type12
  $dihedral:id66 @dihedral:type66 $atom:type14 $atom:type9 $atom:type10 $atom:type13
  $dihedral:id67 @dihedral:type67 $atom:type15 $atom:type9 $atom:type10 $atom:type13
  $dihedral:id68 @dihedral:type68 $atom:type16 $atom:type8 $atom:type9 $atom:type14
  $dihedral:id69 @dihedral:type69 $atom:type17 $atom:type8 $atom:type9 $atom:type14
  $dihedral:id70 @dihedral:type70 $atom:type16 $atom:type8 $atom:type9 $atom:type15
  $dihedral:id71 @dihedral:type71 $atom:type17 $atom:type8 $atom:type9 $atom:type15
  $dihedral:id72 @dihedral:type72 $atom:type18 $atom:type2 $atom:type8 $atom:type16
  $dihedral:id73 @dihedral:type73 $atom:type19 $atom:type2 $atom:type8 $atom:type16
  $dihedral:id74 @dihedral:type74 $atom:type18 $atom:type2 $atom:type8 $atom:type17
  $dihedral:id75 @dihedral:type75 $atom:type19 $atom:type2 $atom:type8 $atom:type17
  $dihedral:id76 @dihedral:type76 $atom:type22 $atom:type4 $atom:type3 $atom:type20
  $dihedral:id77 @dihedral:type77 $atom:type23 $atom:type4 $atom:type3 $atom:type20
  $dihedral:id78 @dihedral:type78 $atom:type22 $atom:type4 $atom:type3 $atom:type21
  $dihedral:id79 @dihedral:type79 $atom:type23 $atom:type4 $atom:type3 $atom:type21
  $dihedral:id80 @dihedral:type80 $atom:type24 $atom:type5 $atom:type4 $atom:type22
  $dihedral:id81 @dihedral:type81 $atom:type25 $atom:type5 $atom:type4 $atom:type22
  $dihedral:id82 @dihedral:type82 $atom:type24 $atom:type5 $atom:type4 $atom:type23
  $dihedral:id83 @dihedral:type83 $atom:type25 $atom:type5 $atom:type4 $atom:type23
  $dihedral:id84 @dihedral:type84 $atom:type1 $atom:type6 $atom:type5 $atom:type24
  $dihedral:id85 @dihedral:type85 $atom:type26 $atom:type6 $atom:type5 $atom:type24
  $dihedral:id86 @dihedral:type86 $atom:type27 $atom:type6 $atom:type5 $atom:type24
  $dihedral:id87 @dihedral:type87 $atom:type1 $atom:type6 $atom:type5 $atom:type25
  $dihedral:id88 @dihedral:type88 $atom:type26 $atom:type6 $atom:type5 $atom:type25
  $dihedral:id89 @dihedral:type89 $atom:type27 $atom:type6 $atom:type5 $atom:type25
  $dihedral:id90 @dihedral:type90 $atom:type4 $atom:type5 $atom:type6 $atom:type1
}
