
  ### LAMMPS commands for initialization
  ### (These can be overridden later.)


write_once("In Init") {
  atom_style full
}

write_once("In Settings") {
  pair_coeff @atom:type1 @atom:type1 0.070 3.5500000
  pair_coeff @atom:type2 @atom:type2 0.070 3.5500000
  pair_coeff @atom:type3 @atom:type3 0.070 3.5500000
  pair_coeff @atom:type4 @atom:type4 0.070 3.5500000
  pair_coeff @atom:type5 @atom:type5 0.070 3.5500000
  pair_coeff @atom:type6 @atom:type6 0.070 3.5500000
  pair_coeff @atom:type7 @atom:type7 0.030 2.4200000
  pair_coeff @atom:type8 @atom:type8 0.030 2.4200000
  pair_coeff @atom:type9 @atom:type9 0.030 2.4200000
  pair_coeff @atom:type10 @atom:type10 0.030 2.4200000
  pair_coeff @atom:type11 @atom:type11 0.030 2.4200000
  pair_coeff @atom:type12 @atom:type12 0.030 2.4200000
}

write_once("In Settings") {
  bond_coeff @bond:type1 469.0000 1.4000
  bond_coeff @bond:type2 469.0000 1.4000
  bond_coeff @bond:type3 469.0000 1.4000
  bond_coeff @bond:type4 469.0000 1.4000
  bond_coeff @bond:type5 469.0000 1.4000
  bond_coeff @bond:type6 367.0000 1.0800
  bond_coeff @bond:type7 367.0000 1.0800
  bond_coeff @bond:type8 367.0000 1.0800
  bond_coeff @bond:type9 367.0000 1.0800
  bond_coeff @bond:type10 367.0000 1.0800
  bond_coeff @bond:type11 367.0000 1.0800
  bond_coeff @bond:type12 469.0000 1.4000
}

write_once("In Settings") {
  angle_coeff @angle:type1 63.000 120.000
  angle_coeff @angle:type2 63.000 120.000
  angle_coeff @angle:type3 63.000 120.000
  angle_coeff @angle:type4 63.000 120.000
  angle_coeff @angle:type5 35.000 120.000
  angle_coeff @angle:type6 35.000 120.000
  angle_coeff @angle:type7 35.000 120.000
  angle_coeff @angle:type8 35.000 120.000
  angle_coeff @angle:type9 35.000 120.000
  angle_coeff @angle:type10 35.000 120.000
  angle_coeff @angle:type11 35.000 120.000
  angle_coeff @angle:type12 35.000 120.000
  angle_coeff @angle:type13 35.000 120.000
  angle_coeff @angle:type14 35.000 120.000
  angle_coeff @angle:type15 63.000 120.000
  angle_coeff @angle:type16 35.000 120.000
  angle_coeff @angle:type17 35.000 120.000
  angle_coeff @angle:type18 63.000 120.000
}

write_once("In Settings") {
  dihedral_coeff @dihedral:type1 0.000 7.250 0.000 0.000
  dihedral_coeff @dihedral:type2 0.000 7.250 0.000 0.000
  dihedral_coeff @dihedral:type3 0.000 7.250 0.000 0.000
  dihedral_coeff @dihedral:type4 0.000 7.250 0.000 0.000
  dihedral_coeff @dihedral:type5 0.000 7.250 0.000 0.000
  dihedral_coeff @dihedral:type6 0.000 7.250 0.000 0.000
  dihedral_coeff @dihedral:type7 0.000 7.250 0.000 0.000
  dihedral_coeff @dihedral:type8 0.000 7.250 0.000 0.000
  dihedral_coeff @dihedral:type9 0.000 7.250 0.000 0.000
  dihedral_coeff @dihedral:type10 0.000 7.250 0.000 0.000
  dihedral_coeff @dihedral:type11 0.000 7.250 0.000 0.000
  dihedral_coeff @dihedral:type12 0.000 7.250 0.000 0.000
  dihedral_coeff @dihedral:type13 0.000 7.250 0.000 0.000
  dihedral_coeff @dihedral:type14 0.000 7.250 0.000 0.000
  dihedral_coeff @dihedral:type15 0.000 7.250 0.000 0.000
  dihedral_coeff @dihedral:type16 0.000 7.250 0.000 0.000
  dihedral_coeff @dihedral:type17 0.000 7.250 0.000 0.000
  dihedral_coeff @dihedral:type18 0.000 7.250 0.000 0.000
  dihedral_coeff @dihedral:type19 0.000 7.250 0.000 0.000
  dihedral_coeff @dihedral:type20 0.000 7.250 0.000 0.000
  dihedral_coeff @dihedral:type21 0.000 7.250 0.000 0.000
  dihedral_coeff @dihedral:type22 0.000 7.250 0.000 0.000
  dihedral_coeff @dihedral:type23 0.000 7.250 0.000 0.000
  dihedral_coeff @dihedral:type24 0.000 7.250 0.000 0.000
}

write_once("In Settings") {
  improper_coeff @improper:type1 2.500 -1 2
  improper_coeff @improper:type2 2.500 -1 2
  improper_coeff @improper:type3 2.500 -1 2
  improper_coeff @improper:type4 2.500 -1 2
  improper_coeff @improper:type5 2.500 -1 2
  improper_coeff @improper:type6 2.500 -1 2
}


  ### DATA sections


write_once("Data Masses") {
  @atom:type1 12.011
  @atom:type2 12.011
  @atom:type3 12.011
  @atom:type4 12.011
  @atom:type5 12.011
  @atom:type6 12.011
  @atom:type7 1.008
  @atom:type8 1.008
  @atom:type9 1.008
  @atom:type10 1.008
  @atom:type11 1.008
  @atom:type12 1.008
}

write("Data Atoms") {
  $atom:type1 $mol:m1 @atom:type1 -0.147307 -1.23800 -0.70200 0.00000
  $atom:type2 $mol:m1 @atom:type2 -0.147259 -1.22700 0.70700 0.00000
  $atom:type3 $mol:m1 @atom:type3 -0.147296 -0.02300 -1.41600 0.00000
  $atom:type4 $mol:m1 @atom:type4 -0.147296 -0.00200 1.40200 0.00000
  $atom:type5 $mol:m1 @atom:type5 -0.147259 1.20200 -0.72100 0.00000
  $atom:type6 $mol:m1 @atom:type6 -0.147307 1.21300 0.68800 0.00000
  $atom:type7 $mol:m1 @atom:type7 0.147239 -2.17800 -1.23500 0.00000
  $atom:type8 $mol:m1 @atom:type8 0.147221 -2.15900 1.25400 0.00000
  $atom:type9 $mol:m1 @atom:type9 0.147400 -0.03200 -2.49600 0.00000
  $atom:type10 $mol:m1 @atom:type10 0.147400 0.00700 2.48200 0.00000
  $atom:type11 $mol:m1 @atom:type11 0.147221 2.13400 -1.26800 0.00000
  $atom:type12 $mol:m1 @atom:type12 0.147243 2.15300 1.22100 0.00000
}

write("Data Bonds") {
  $bond:id1 @bond:type1 $atom:type4 $atom:type6
  $bond:id2 @bond:type2 $atom:type5 $atom:type6
  $bond:id3 @bond:type3 $atom:type2 $atom:type4
  $bond:id4 @bond:type4 $atom:type3 $atom:type5
  $bond:id5 @bond:type5 $atom:type1 $atom:type3
  $bond:id6 @bond:type6 $atom:type7 $atom:type1
  $bond:id7 @bond:type7 $atom:type8 $atom:type2
  $bond:id8 @bond:type8 $atom:type9 $atom:type3
  $bond:id9 @bond:type9 $atom:type10 $atom:type4
  $bond:id10 @bond:type10 $atom:type11 $atom:type5
  $bond:id11 @bond:type11 $atom:type12 $atom:type6
  $bond:id12 @bond:type12 $atom:type1 $atom:type2
}

write("Data Angles") {
  $angle:id1 @angle:type1 $atom:type5 $atom:type6 $atom:type4
  $angle:id2 @angle:type2 $atom:type2 $atom:type4 $atom:type6
  $angle:id3 @angle:type3 $atom:type3 $atom:type5 $atom:type6
  $angle:id4 @angle:type4 $atom:type1 $atom:type3 $atom:type5
  $angle:id5 @angle:type5 $atom:type7 $atom:type1 $atom:type3
  $angle:id6 @angle:type6 $atom:type8 $atom:type2 $atom:type4
  $angle:id7 @angle:type7 $atom:type9 $atom:type3 $atom:type5
  $angle:id8 @angle:type8 $atom:type10 $atom:type4 $atom:type6
  $angle:id9 @angle:type9 $atom:type11 $atom:type5 $atom:type6
  $angle:id10 @angle:type10 $atom:type12 $atom:type6 $atom:type4
  $angle:id11 @angle:type11 $atom:type12 $atom:type6 $atom:type5
  $angle:id12 @angle:type12 $atom:type10 $atom:type4 $atom:type2
  $angle:id13 @angle:type13 $atom:type11 $atom:type5 $atom:type3
  $angle:id14 @angle:type14 $atom:type9 $atom:type3 $atom:type1
  $angle:id15 @angle:type15 $atom:type4 $atom:type2 $atom:type1
  $angle:id16 @angle:type16 $atom:type8 $atom:type2 $atom:type1
  $angle:id17 @angle:type17 $atom:type2 $atom:type1 $atom:type7
  $angle:id18 @angle:type18 $atom:type3 $atom:type1 $atom:type2
}

write("Data Dihedrals") {
  $dihedral:id1 @dihedral:type1 $atom:type2 $atom:type4 $atom:type6 $atom:type5
  $dihedral:id2 @dihedral:type2 $atom:type3 $atom:type5 $atom:type6 $atom:type4
  $dihedral:id3 @dihedral:type3 $atom:type1 $atom:type3 $atom:type5 $atom:type6
  $dihedral:id4 @dihedral:type4 $atom:type7 $atom:type1 $atom:type3 $atom:type5
  $dihedral:id5 @dihedral:type5 $atom:type8 $atom:type2 $atom:type4 $atom:type6
  $dihedral:id6 @dihedral:type6 $atom:type9 $atom:type3 $atom:type5 $atom:type6
  $dihedral:id7 @dihedral:type7 $atom:type10 $atom:type4 $atom:type6 $atom:type5
  $dihedral:id8 @dihedral:type8 $atom:type11 $atom:type5 $atom:type6 $atom:type4
  $dihedral:id9 @dihedral:type9 $atom:type12 $atom:type6 $atom:type4 $atom:type2
  $dihedral:id10 @dihedral:type10 $atom:type12 $atom:type6 $atom:type5 $atom:type3
  $dihedral:id11 @dihedral:type11 $atom:type11 $atom:type5 $atom:type3 $atom:type1
  $dihedral:id12 @dihedral:type12 $atom:type6 $atom:type4 $atom:type2 $atom:type1
  $dihedral:id13 @dihedral:type13 $atom:type10 $atom:type4 $atom:type2 $atom:type1
  $dihedral:id14 @dihedral:type14 $atom:type9 $atom:type3 $atom:type1 $atom:type7
  $dihedral:id15 @dihedral:type15 $atom:type4 $atom:type2 $atom:type1 $atom:type7
  $dihedral:id16 @dihedral:type16 $atom:type8 $atom:type2 $atom:type1 $atom:type7
  $dihedral:id17 @dihedral:type17 $atom:type10 $atom:type4 $atom:type2 $atom:type8
  $dihedral:id18 @dihedral:type18 $atom:type3 $atom:type1 $atom:type2 $atom:type8
  $dihedral:id19 @dihedral:type19 $atom:type11 $atom:type5 $atom:type3 $atom:type9
  $dihedral:id20 @dihedral:type20 $atom:type2 $atom:type1 $atom:type3 $atom:type9
  $dihedral:id21 @dihedral:type21 $atom:type12 $atom:type6 $atom:type4 $atom:type10
  $dihedral:id22 @dihedral:type22 $atom:type12 $atom:type6 $atom:type5 $atom:type11
  $dihedral:id23 @dihedral:type23 $atom:type5 $atom:type3 $atom:type1 $atom:type2
  $dihedral:id24 @dihedral:type24 $atom:type4 $atom:type2 $atom:type1 $atom:type3
}

write("Data Impropers") {
  $improper:id1 @improper:type1 $atom:type4 $atom:type6 $atom:type5 $atom:type12
  $improper:id2 @improper:type2 $atom:type6 $atom:type4 $atom:type2 $atom:type10
  $improper:id3 @improper:type3 $atom:type6 $atom:type5 $atom:type3 $atom:type11
  $improper:id4 @improper:type4 $atom:type4 $atom:type2 $atom:type1 $atom:type8
  $improper:id5 @improper:type5 $atom:type5 $atom:type3 $atom:type1 $atom:type9
  $improper:id6 @improper:type6 $atom:type3 $atom:type1 $atom:type2 $atom:type7
}
