import oplsaa2024.lt

Ag inherits OPLSAA {

  write_once("Data Masses") {
    @atom:Ag 107.868
  }

  write_once("In Settings") {
    pair_coeff @atom:Ag @atom:Ag 0.056 2.934
  }

  write_once("In Init") {
    atom_style full
  }

  write("Data Atoms") {
      $atom:type1_1 $mol:m0 @atom:Ag 0.0 1.4460333675264898 0.83486775399859969 0
      $atom:type1_2 $mol:m0 @atom:Ag 0.0 4.3381001025794692 0.83486775399859969 0
      $atom:type1_3 $mol:m0 @atom:Ag 0.0 7.2301668376324493 0.83486775399859969 0
      $atom:type1_4 $mol:m0 @atom:Ag 0.0 10.122233572685429 0.83486775399859969 0
      $atom:type1_5 $mol:m0 @atom:Ag 0.0 0 3.3394710159943988 0
      $atom:type1_6 $mol:m0 @atom:Ag 0.0 2.8920667350529796 3.3394710159943988 0
      $atom:type1_7 $mol:m0 @atom:Ag 0.0 5.7841334701059592 3.3394710159943988 0
      $atom:type1_8 $mol:m0 @atom:Ag 0.0 8.6762002051589384 3.3394710159943988 0
      $atom:type1_9 $mol:m0 @atom:Ag 0.0 1.4460333675264898 5.8440742779901989 0
      $atom:type1_10 $mol:m0 @atom:Ag 0.0 4.3381001025794692 5.8440742779901989 0
      $atom:type1_11 $mol:m0 @atom:Ag 0.0 7.2301668376324493 5.8440742779901989 0
      $atom:type1_12 $mol:m0 @atom:Ag 0.0 10.122233572685429 5.8440742779901989 0
      $atom:type1_13 $mol:m0 @atom:Ag 0.0 0 8.3486775399859976 0
      $atom:type1_14 $mol:m0 @atom:Ag 0.0 2.8920667350529796 8.3486775399859976 0
      $atom:type1_15 $mol:m0 @atom:Ag 0.0 5.7841334701059592 8.3486775399859976 0
      $atom:type1_16 $mol:m0 @atom:Ag 0.0 8.6762002051589384 8.3486775399859976 0
      $atom:type1_17 $mol:m0 @atom:Ag 0.0 0 1.6697355079971994 2.3613626009855695
      $atom:type1_18 $mol:m0 @atom:Ag 0.0 2.8920667350529796 1.6697355079971994 2.3613626009855695
      $atom:type1_19 $mol:m0 @atom:Ag 0.0 5.7841334701059592 1.6697355079971994 2.3613626009855695
      $atom:type1_20 $mol:m0 @atom:Ag 0.0 8.6762002051589384 1.6697355079971994 2.3613626009855695
      $atom:type1_21 $mol:m0 @atom:Ag 0.0 1.4460333675264898 4.1743387699929979 2.3613626009855695
      $atom:type1_22 $mol:m0 @atom:Ag 0.0 4.3381001025794692 4.1743387699929979 2.3613626009855695
      $atom:type1_23 $mol:m0 @atom:Ag 0.0 7.2301668376324493 4.1743387699929979 2.3613626009855695
      $atom:type1_24 $mol:m0 @atom:Ag 0.0 10.122233572685429 4.1743387699929979 2.3613626009855695
      $atom:type1_25 $mol:m0 @atom:Ag 0.0 0 6.6789420319887975 2.3613626009855695
      $atom:type1_26 $mol:m0 @atom:Ag 0.0 2.8920667350529796 6.6789420319887975 2.3613626009855695
      $atom:type1_27 $mol:m0 @atom:Ag 0.0 5.7841334701059592 6.6789420319887975 2.3613626009855695
      $atom:type1_28 $mol:m0 @atom:Ag 0.0 8.6762002051589384 6.6789420319887975 2.3613626009855695
      $atom:type1_29 $mol:m0 @atom:Ag 0.0 1.4460333675264898 9.1835452939845972 2.3613626009855695
      $atom:type1_30 $mol:m0 @atom:Ag 0.0 4.3381001025794692 9.1835452939845972 2.3613626009855695
      $atom:type1_31 $mol:m0 @atom:Ag 0.0 7.2301668376324493 9.1835452939845972 2.3613626009855695
      $atom:type1_32 $mol:m0 @atom:Ag 0.0 10.122233572685429 9.1835452939845972 2.3613626009855695
      $atom:type1_33 $mol:m0 @atom:Ag 0.0 0 0 4.722725201971139
      $atom:type1_34 $mol:m0 @atom:Ag 0.0 2.8920667350529796 0 4.722725201971139
      $atom:type1_35 $mol:m0 @atom:Ag 0.0 5.7841334701059592 0 4.722725201971139
      $atom:type1_36 $mol:m0 @atom:Ag 0.0 8.6762002051589384 0 4.722725201971139
      $atom:type1_37 $mol:m0 @atom:Ag 0.0 1.4460333675264898 2.5046032619957992 4.722725201971139
      $atom:type1_38 $mol:m0 @atom:Ag 0.0 4.3381001025794692 2.5046032619957992 4.722725201971139
      $atom:type1_39 $mol:m0 @atom:Ag 0.0 7.2301668376324493 2.5046032619957992 4.722725201971139
      $atom:type1_40 $mol:m0 @atom:Ag 0.0 10.122233572685429 2.5046032619957992 4.722725201971139
      $atom:type1_41 $mol:m0 @atom:Ag 0.0 0 5.0092065239915984 4.722725201971139
      $atom:type1_42 $mol:m0 @atom:Ag 0.0 2.8920667350529796 5.0092065239915984 4.722725201971139
      $atom:type1_43 $mol:m0 @atom:Ag 0.0 5.7841334701059592 5.0092065239915984 4.722725201971139
      $atom:type1_44 $mol:m0 @atom:Ag 0.0 8.6762002051589384 5.0092065239915984 4.722725201971139
      $atom:type1_45 $mol:m0 @atom:Ag 0.0 1.4460333675264898 7.513809785987398 4.722725201971139
      $atom:type1_46 $mol:m0 @atom:Ag 0.0 4.3381001025794692 7.513809785987398 4.722725201971139
      $atom:type1_47 $mol:m0 @atom:Ag 0.0 7.2301668376324493 7.513809785987398 4.722725201971139
      $atom:type1_48 $mol:m0 @atom:Ag 0.0 10.122233572685429 7.513809785987398 4.722725201971139
  }

}
